c This cnf file is generated with the following input: k = 5, n = 150, r = 0.2
p cnf 150 30
98 -148 99 0
-147 115 -148 0
-116 -119 103 0
98 3 -104 0
-50 -71 -10 0
-148 -62 61 0
-68 -102 56 0
-1 -50 145 0
-34 101 -105 0
112 -3 -4 0
-132 38 -11 0
-113 19 86 0
96 -147 9 0
-147 -133 134 0
-131 -137 124 0
6 -58 -31 0
-66 -117 5 0
-17 -114 -36 0
-36 100 26 0
18 115 51 0
-84 -4 51 0
-18 -150 -40 0
-114 -131 132 0
32 100 7 0
-34 49 117 0
17 114 103 0
-129 -66 22 0
32 5 -104 0
-113 96 -100 0
-17 -4 102 0
